NAME : mEgtspf.pid9373.gtsp.240592051.tour
COMMENT : Length = 240592051
COMMENT : Found by LKH [Keld Helsgaun] Wed Mar 19 20:20:18 2025
TYPE : TOUR
DIMENSION : 135
TOUR_SECTION
1
100
101
102
103
70
71
68
69
12
98
99
96
97
54
55
52
53
91
88
89
90
29
30
31
28
11
123
120
121
122
127
124
125
126
3
23
20
21
22
6
112
113
114
115
5
49
50
51
48
86
87
84
85
62
63
60
61
4
15
10
94
95
92
93
14
116
117
118
119
13
27
24
25
26
32
33
34
35
109
110
111
108
44
45
46
47
2
36
37
38
39
81
82
83
80
77
78
79
76
7
131
128
129
130
40
41
42
43
73
74
75
72
8
58
59
56
57
135
132
133
134
9
17
18
19
16
104
105
106
107
67
64
65
66
-1
EOF
